c description: Random 3-CNF over 14 variables and 42 clauses
p cnf 14 42
1 -3 -5 0
2 -3 -4 0
2 9 14 0
1 -2 -3 0
-7 8 -13 0
-3 -4 13 0
1 7 -14 0
-1 -10 -11 0
-6 10 14 0
-3 11 14 0
2 3 -11 0
-5 9 13 0
-1 -3 12 0
-1 8 -14 0
5 -6 13 0
-7 11 13 0
-2 8 -9 0
5 9 14 0
-2 3 5 0
2 -3 6 0
8 9 -13 0
4 -8 -12 0
7 -11 12 0
-4 5 -11 0
3 5 -12 0
4 6 -10 0
-6 8 -13 0
-2 12 13 0
4 -8 -9 0
-2 7 -8 0
-1 3 -11 0
1 9 -11 0
-7 8 14 0
9 -10 -11 0
-3 4 9 0
-2 4 -13 0
-8 12 -13 0
1 4 -12 0
-1 -6 9 0
1 -4 -10 0
4 -7 -11 0
1 -4 11 0